NAME : 2
COMMENT : Generated instance No. 2
TYPE : CVRP
DIMENSION : 21
EDGE_WEIGHT_TYPE : EUC_2D
CAPACITY : 25
NODE_COORD_SECTION
 1 500 500
 2 908 239
 3 144 489
 4 985 242
 5 672 761
 6 237 728
 7 367 632
 8 633 535
 9 90 835
 10 320 186
 11 40 590
 12 677 16
 13 512 226
 14 645 174
 15 690 386
 16 936 137
 17 341 113
 18 924 877
 19 257 659
 20 817 555
 21 529 241
DEMAND_SECTION
1 0
2 8
3 6
4 4
5 5
6 5
7 8
8 3
9 7
10 1
11 1
12 3
13 3
14 8
15 8
16 3
17 4
18 8
19 6
20 8
21 1
DEPOT_SECTION
 1
 -1
EOF